Route #1: 6 2 24 
Route #2: 3 5 19 27 48 25 17 12 44 13 
Route #3: 45 7 32 31 21 37 50 34 38 41 49 
Route #4: 35 8 26 10 28 
Route #5: 11 22 9 43 18 16 
Route #6: 15 20 30 29 33 
Route #7: 23 47 42 46 40 36 4 
Route #8: 39 14 
cost 1338.87
